






































































































72 64 36 63 30 27 23 
75 44 58 2 48 73 24 67 
21 16 46 25 22 4 
41 55 1 19 60 35 
7 65 71 45 53 40 14 
37 56 42 11 49 32 26 
15 28 33 39 52 76 68 
62 66 5 43 61 12 
51 8 57 74 20 13 54 
6 31 18 0 38 34 
9 59 17 10 29 50 3 
47 70 69 
